size = 15;
tiles = 5;
expressions = [
    "( ([2 3 4 5 6]* 1{4} [2 3 4 5 6]{11} [2 3 4 5 6] 1{3} [2 3 4 5 6]{12} [2 3 4 5 6] 1{5} [2 3 4 5 6]{10} [2 3 4 5 6] 1{6} [2 3 4 5 6]{9} [2 3 4 5 6] 1{7} [2 3 4 5 6]{8} [2 3 4 5 6] 1{7} [2 3 4 5 6]{8} [2 3 4 5 6] 1{8} [2 3 4 5 6]{7} [2 3 4 5 6] 1{8} [2 3 4 5 6]{7} [2 3 4 5 6] 1{9}  [2 3 4 5 6]*) | ([2 3 4 5 6]* 1{9} [2 3 4 5 6]{6} [2 3 4 5 6] 1{9} [2 3 4 5 6]{6} [2 3 4 5 6] 1{9} [2 3 4 5 6]{6} [2 3 4 5 6] 1{7} [2 3 4 5 6]{1} 1{1} [2 3 4 5 6]{6} [2 3 4 5 6] 1{7} [2 3 4 5 6]{8} [2 3 4 5 6] 1{6} [2 3 4 5 6]{9} [2 3 4 5 6] 1{5} [2 3 4 5 6]{10} [2 3 4 5 6] 1{3} [2 3 4 5 6]{12} [2 3 4 5 6] 1{1}  [2 3 4 5 6]*) | ([2 3 4 5 6]* 1{9} [2 3 4 5 6] [2 3 4 5 6]{7} 1{8} [2 3 4 5 6] [2 3 4 5 6]{7} 1{8} [2 3 4 5 6] [2 3 4 5 6]{8} 1{7} [2 3 4 5 6] [2 3 4 5 6]{8} 1{7} [2 3 4 5 6] [2 3 4 5 6]{9} 1{6} [2 3 4 5 6] [2 3 4 5 6]{10} 1{5} [2 3 4 5 6] [2 3 4 5 6]{12} 1{3} [2 3 4 5 6] [2 3 4 5 6]{11} 1{4}  [2 3 4 5 6]*) | ([2 3 4 5 6]* 1{1} [2 3 4 5 6] [2 3 4 5 6]{12} 1{3} [2 3 4 5 6] [2 3 4 5 6]{10} 1{5} [2 3 4 5 6] [2 3 4 5 6]{9} 1{6} [2 3 4 5 6] [2 3 4 5 6]{8} 1{7} [2 3 4 5 6] [2 3 4 5 6]{6} 1{1} [2 3 4 5 6]{1} 1{7} [2 3 4 5 6] [2 3 4 5 6]{6} 1{9} [2 3 4 5 6] [2 3 4 5 6]{6} 1{9} [2 3 4 5 6] [2 3 4 5 6]{6} 1{9}  [2 3 4 5 6]*) | ([2 3 4 5 6]* 1{4} [2 3 4 5 6] [2 3 4 5 6]{12} 1{3} [2 3 4 5 6] [2 3 4 5 6]{10} 1{5} [2 3 4 5 6] [2 3 4 5 6]{9} 1{6} [2 3 4 5 6] [2 3 4 5 6]{8} 1{7} [2 3 4 5 6] [2 3 4 5 6]{8} 1{7} [2 3 4 5 6] [2 3 4 5 6]{7} 1{8} [2 3 4 5 6] [2 3 4 5 6]{7} 1{8} [2 3 4 5 6] [2 3 4 5 6]{6} 1{9}  [2 3 4 5 6]*) | ([2 3 4 5 6]* 1{9} [2 3 4 5 6] [2 3 4 5 6]{6} 1{9} [2 3 4 5 6] [2 3 4 5 6]{6} 1{9} [2 3 4 5 6] [2 3 4 5 6]{6} 1{1} [2 3 4 5 6]{1} 1{7} [2 3 4 5 6] [2 3 4 5 6]{8} 1{7} [2 3 4 5 6] [2 3 4 5 6]{9} 1{6} [2 3 4 5 6] [2 3 4 5 6]{10} 1{5} [2 3 4 5 6] [2 3 4 5 6]{12} 1{3} [2 3 4 5 6] [2 3 4 5 6]{14} 1{1}  [2 3 4 5 6]*) | ([2 3 4 5 6]* 1{9} [2 3 4 5 6]{6} [2 3 4 5 6] 1{8} [2 3 4 5 6]{7} [2 3 4 5 6] 1{8} [2 3 4 5 6]{7} [2 3 4 5 6] 1{7} [2 3 4 5 6]{8} [2 3 4 5 6] 1{7} [2 3 4 5 6]{8} [2 3 4 5 6] 1{6} [2 3 4 5 6]{9} [2 3 4 5 6] 1{5} [2 3 4 5 6]{10} [2 3 4 5 6] 1{3} [2 3 4 5 6]{12} [2 3 4 5 6] 1{4}  [2 3 4 5 6]*) | ([2 3 4 5 6]* 1{1} [2 3 4 5 6]{14} [2 3 4 5 6] 1{3} [2 3 4 5 6]{12} [2 3 4 5 6] 1{5} [2 3 4 5 6]{10} [2 3 4 5 6] 1{6} [2 3 4 5 6]{9} [2 3 4 5 6] 1{7} [2 3 4 5 6]{8} [2 3 4 5 6] 1{7} [2 3 4 5 6]{1} 1{1} [2 3 4 5 6]{6} [2 3 4 5 6] 1{9} [2 3 4 5 6]{6} [2 3 4 5 6] 1{9} [2 3 4 5 6]{6} [2 3 4 5 6] 1{9}  [2 3 4 5 6]*) )",
    "( ([1 3 4 5 6]* 2{5} [1 3 4 5 6]{2} 2{6} [1 3 4 5 6]{2} [1 3 4 5 6] 2{5} [1 3 4 5 6]{1} 2{6} [1 3 4 5 6]{3} [1 3 4 5 6] 2{12} [1 3 4 5 6]{3} [1 3 4 5 6] 2{12} [1 3 4 5 6]{3} [1 3 4 5 6] 2{12} [1 3 4 5 6]{3} [1 3 4 5 6] 2{10} [1 3 4 5 6]{5} [1 3 4 5 6] [1 3 4 5 6]{4} 2{5} [1 3 4 5 6]{6} [1 3 4 5 6] [1 3 4 5 6]{3} 2{6} [1 3 4 5 6]{6} [1 3 4 5 6] [1 3 4 5 6]{5} 2{2} [1 3 4 5 6]{8} [1 3 4 5 6] [1 3 4 5 6]{6} 2{1}  [1 3 4 5 6]*) | ([1 3 4 5 6]* 2{6} [1 3 4 5 6] [1 3 4 5 6]{9} 2{6} [1 3 4 5 6] [1 3 4 5 6]{9} 2{6} [1 3 4 5 6] [1 3 4 5 6]{7} 2{1} [1 3 4 5 6]{1} 2{6} [1 3 4 5 6] [1 3 4 5 6]{7} 2{8} [1 3 4 5 6] [1 3 4 5 6]{6} 2{7} [1 3 4 5 6]{2} [1 3 4 5 6] [1 3 4 5 6]{5} 2{9} [1 3 4 5 6]{1} [1 3 4 5 6] [1 3 4 5 6]{7} 2{8} [1 3 4 5 6] [1 3 4 5 6]{7} 2{8} [1 3 4 5 6] [1 3 4 5 6]{9} 2{6} [1 3 4 5 6] [1 3 4 5 6]{10} 2{5} [1 3 4 5 6] [1 3 4 5 6]{10} 2{5} [1 3 4 5 6] [1 3 4 5 6]{14} 2{1}  [1 3 4 5 6]*) | ([1 3 4 5 6]* 2{1} [1 3 4 5 6]{6} [1 3 4 5 6] [1 3 4 5 6]{8} 2{2} [1 3 4 5 6]{5} [1 3 4 5 6] [1 3 4 5 6]{6} 2{6} [1 3 4 5 6]{3} [1 3 4 5 6] [1 3 4 5 6]{6} 2{5} [1 3 4 5 6]{4} [1 3 4 5 6] [1 3 4 5 6]{5} 2{10} [1 3 4 5 6] [1 3 4 5 6]{3} 2{12} [1 3 4 5 6] [1 3 4 5 6]{3} 2{12} [1 3 4 5 6] [1 3 4 5 6]{3} 2{12} [1 3 4 5 6] [1 3 4 5 6]{3} 2{6} [1 3 4 5 6]{1} 2{5} [1 3 4 5 6] [1 3 4 5 6]{2} 2{6} [1 3 4 5 6]{2} 2{5}  [1 3 4 5 6]*) | ([1 3 4 5 6]* 2{1} [1 3 4 5 6]{14} [1 3 4 5 6] 2{5} [1 3 4 5 6]{10} [1 3 4 5 6] 2{5} [1 3 4 5 6]{10} [1 3 4 5 6] 2{6} [1 3 4 5 6]{9} [1 3 4 5 6] 2{8} [1 3 4 5 6]{7} [1 3 4 5 6] 2{8} [1 3 4 5 6]{7} [1 3 4 5 6] [1 3 4 5 6]{1} 2{9} [1 3 4 5 6]{5} [1 3 4 5 6] [1 3 4 5 6]{2} 2{7} [1 3 4 5 6]{6} [1 3 4 5 6] 2{8} [1 3 4 5 6]{7} [1 3 4 5 6] 2{6} [1 3 4 5 6]{1} 2{1} [1 3 4 5 6]{7} [1 3 4 5 6] 2{6} [1 3 4 5 6]{9} [1 3 4 5 6] 2{6} [1 3 4 5 6]{9} [1 3 4 5 6] 2{6}  [1 3 4 5 6]*) | ([1 3 4 5 6]* 2{6} [1 3 4 5 6]{2} 2{5} [1 3 4 5 6] [1 3 4 5 6]{3} 2{6} [1 3 4 5 6]{1} 2{5} [1 3 4 5 6] [1 3 4 5 6]{3} 2{12} [1 3 4 5 6] [1 3 4 5 6]{3} 2{12} [1 3 4 5 6] [1 3 4 5 6]{3} 2{12} [1 3 4 5 6] [1 3 4 5 6]{5} 2{10} [1 3 4 5 6] [1 3 4 5 6]{6} 2{5} [1 3 4 5 6]{4} [1 3 4 5 6] [1 3 4 5 6]{6} 2{6} [1 3 4 5 6]{3} [1 3 4 5 6] [1 3 4 5 6]{8} 2{2} [1 3 4 5 6]{5} [1 3 4 5 6] [1 3 4 5 6]{8} 2{1}  [1 3 4 5 6]*) | ([1 3 4 5 6]* 2{6} [1 3 4 5 6]{9} [1 3 4 5 6] 2{6} [1 3 4 5 6]{9} [1 3 4 5 6] 2{6} [1 3 4 5 6]{9} [1 3 4 5 6] 2{6} [1 3 4 5 6]{1} 2{1} [1 3 4 5 6]{7} [1 3 4 5 6] 2{8} [1 3 4 5 6]{7} [1 3 4 5 6] [1 3 4 5 6]{2} 2{7} [1 3 4 5 6]{6} [1 3 4 5 6] [1 3 4 5 6]{1} 2{9} [1 3 4 5 6]{5} [1 3 4 5 6] 2{8} [1 3 4 5 6]{7} [1 3 4 5 6] 2{8} [1 3 4 5 6]{7} [1 3 4 5 6] 2{6} [1 3 4 5 6]{9} [1 3 4 5 6] 2{5} [1 3 4 5 6]{10} [1 3 4 5 6] 2{5} [1 3 4 5 6]{10} [1 3 4 5 6] 2{1}  [1 3 4 5 6]*) | ([1 3 4 5 6]* 2{1} [1 3 4 5 6]{8} [1 3 4 5 6] [1 3 4 5 6]{5} 2{2} [1 3 4 5 6]{8} [1 3 4 5 6] [1 3 4 5 6]{3} 2{6} [1 3 4 5 6]{6} [1 3 4 5 6] [1 3 4 5 6]{4} 2{5} [1 3 4 5 6]{6} [1 3 4 5 6] 2{10} [1 3 4 5 6]{5} [1 3 4 5 6] 2{12} [1 3 4 5 6]{3} [1 3 4 5 6] 2{12} [1 3 4 5 6]{3} [1 3 4 5 6] 2{12} [1 3 4 5 6]{3} [1 3 4 5 6] 2{5} [1 3 4 5 6]{1} 2{6} [1 3 4 5 6]{3} [1 3 4 5 6] 2{5} [1 3 4 5 6]{2} 2{6}  [1 3 4 5 6]*) | ([1 3 4 5 6]* 2{1} [1 3 4 5 6] [1 3 4 5 6]{10} 2{5} [1 3 4 5 6] [1 3 4 5 6]{10} 2{5} [1 3 4 5 6] [1 3 4 5 6]{9} 2{6} [1 3 4 5 6] [1 3 4 5 6]{7} 2{8} [1 3 4 5 6] [1 3 4 5 6]{7} 2{8} [1 3 4 5 6] [1 3 4 5 6]{5} 2{9} [1 3 4 5 6]{1} [1 3 4 5 6] [1 3 4 5 6]{6} 2{7} [1 3 4 5 6]{2} [1 3 4 5 6] [1 3 4 5 6]{7} 2{8} [1 3 4 5 6] [1 3 4 5 6]{7} 2{1} [1 3 4 5 6]{1} 2{6} [1 3 4 5 6] [1 3 4 5 6]{9} 2{6} [1 3 4 5 6] [1 3 4 5 6]{9} 2{6} [1 3 4 5 6] [1 3 4 5 6]{9} 2{6}  [1 3 4 5 6]*) )",
    "( ([1 2 4 5 6]* 3{3} [1 2 4 5 6] [1 2 4 5 6]{10} 3{5} [1 2 4 5 6] [1 2 4 5 6]{9} 3{6} [1 2 4 5 6] [1 2 4 5 6]{9} 3{6} [1 2 4 5 6] [1 2 4 5 6]{7} 3{8} [1 2 4 5 6] [1 2 4 5 6]{7} 3{8} [1 2 4 5 6] [1 2 4 5 6]{7} 3{8} [1 2 4 5 6] [1 2 4 5 6]{7} 3{8} [1 2 4 5 6] [1 2 4 5 6]{8} 3{7} [1 2 4 5 6] [1 2 4 5 6]{8} 3{7} [1 2 4 5 6] [1 2 4 5 6]{9} 3{6}  [1 2 4 5 6]*) | ([1 2 4 5 6]* 3{4} [1 2 4 5 6]{8} [1 2 4 5 6] [1 2 4 5 6]{1} 3{6} [1 2 4 5 6]{8} [1 2 4 5 6] 3{9} [1 2 4 5 6]{6} [1 2 4 5 6] 3{10} [1 2 4 5 6]{5} [1 2 4 5 6] 3{10} [1 2 4 5 6]{5} [1 2 4 5 6] 3{11} [1 2 4 5 6]{4} [1 2 4 5 6] 3{11} [1 2 4 5 6]{4} [1 2 4 5 6] 3{11}  [1 2 4 5 6]*) | ([1 2 4 5 6]* 3{6} [1 2 4 5 6]{9} [1 2 4 5 6] 3{7} [1 2 4 5 6]{8} [1 2 4 5 6] 3{7} [1 2 4 5 6]{8} [1 2 4 5 6] 3{8} [1 2 4 5 6]{7} [1 2 4 5 6] 3{8} [1 2 4 5 6]{7} [1 2 4 5 6] 3{8} [1 2 4 5 6]{7} [1 2 4 5 6] 3{8} [1 2 4 5 6]{7} [1 2 4 5 6] 3{6} [1 2 4 5 6]{9} [1 2 4 5 6] 3{6} [1 2 4 5 6]{9} [1 2 4 5 6] 3{5} [1 2 4 5 6]{10} [1 2 4 5 6] 3{3}  [1 2 4 5 6]*) | ([1 2 4 5 6]* 3{11} [1 2 4 5 6] [1 2 4 5 6]{4} 3{11} [1 2 4 5 6] [1 2 4 5 6]{4} 3{11} [1 2 4 5 6] [1 2 4 5 6]{5} 3{10} [1 2 4 5 6] [1 2 4 5 6]{5} 3{10} [1 2 4 5 6] [1 2 4 5 6]{6} 3{9} [1 2 4 5 6] [1 2 4 5 6]{8} 3{6} [1 2 4 5 6]{1} [1 2 4 5 6] [1 2 4 5 6]{8} 3{4}  [1 2 4 5 6]*) | ([1 2 4 5 6]* 3{3} [1 2 4 5 6]{12} [1 2 4 5 6] 3{5} [1 2 4 5 6]{10} [1 2 4 5 6] 3{6} [1 2 4 5 6]{9} [1 2 4 5 6] 3{6} [1 2 4 5 6]{9} [1 2 4 5 6] 3{8} [1 2 4 5 6]{7} [1 2 4 5 6] 3{8} [1 2 4 5 6]{7} [1 2 4 5 6] 3{8} [1 2 4 5 6]{7} [1 2 4 5 6] 3{8} [1 2 4 5 6]{7} [1 2 4 5 6] 3{7} [1 2 4 5 6]{8} [1 2 4 5 6] 3{7} [1 2 4 5 6]{8} [1 2 4 5 6] 3{6}  [1 2 4 5 6]*) | ([1 2 4 5 6]* 3{4} [1 2 4 5 6]{3} [1 2 4 5 6] [1 2 4 5 6]{8} 3{6} [1 2 4 5 6]{1} [1 2 4 5 6] [1 2 4 5 6]{6} 3{9} [1 2 4 5 6] [1 2 4 5 6]{5} 3{10} [1 2 4 5 6] [1 2 4 5 6]{5} 3{10} [1 2 4 5 6] [1 2 4 5 6]{4} 3{11} [1 2 4 5 6] [1 2 4 5 6]{4} 3{11} [1 2 4 5 6] [1 2 4 5 6]{4} 3{11}  [1 2 4 5 6]*) | ([1 2 4 5 6]* 3{6} [1 2 4 5 6] [1 2 4 5 6]{8} 3{7} [1 2 4 5 6] [1 2 4 5 6]{8} 3{7} [1 2 4 5 6] [1 2 4 5 6]{7} 3{8} [1 2 4 5 6] [1 2 4 5 6]{7} 3{8} [1 2 4 5 6] [1 2 4 5 6]{7} 3{8} [1 2 4 5 6] [1 2 4 5 6]{7} 3{8} [1 2 4 5 6] [1 2 4 5 6]{9} 3{6} [1 2 4 5 6] [1 2 4 5 6]{9} 3{6} [1 2 4 5 6] [1 2 4 5 6]{10} 3{5} [1 2 4 5 6] [1 2 4 5 6]{12} 3{3}  [1 2 4 5 6]*) | ([1 2 4 5 6]* 3{11} [1 2 4 5 6]{4} [1 2 4 5 6] 3{11} [1 2 4 5 6]{4} [1 2 4 5 6] 3{11} [1 2 4 5 6]{4} [1 2 4 5 6] 3{10} [1 2 4 5 6]{5} [1 2 4 5 6] 3{10} [1 2 4 5 6]{5} [1 2 4 5 6] 3{9} [1 2 4 5 6]{6} [1 2 4 5 6] [1 2 4 5 6]{1} 3{6} [1 2 4 5 6]{8} [1 2 4 5 6] [1 2 4 5 6]{3} 3{4}  [1 2 4 5 6]*) )",
    "( ([1 2 3 5 6]* 4{2} [1 2 3 5 6]{8} [1 2 3 5 6] [1 2 3 5 6]{5} 4{1}  [1 2 3 5 6]*) | ([1 2 3 5 6]* 4{2} [1 2 3 5 6] [1 2 3 5 6]{14} 4{1}  [1 2 3 5 6]*) | ([1 2 3 5 6]* 4{1} [1 2 3 5 6]{5} [1 2 3 5 6] [1 2 3 5 6]{8} 4{2}  [1 2 3 5 6]*) | ([1 2 3 5 6]* 4{1} [1 2 3 5 6]{14} [1 2 3 5 6] 4{2}  [1 2 3 5 6]*) | ([1 2 3 5 6]* 4{2} [1 2 3 5 6]{5} [1 2 3 5 6] [1 2 3 5 6]{9} 4{1}  [1 2 3 5 6]*) | ([1 2 3 5 6]* 4{2} [1 2 3 5 6]{13} [1 2 3 5 6] 4{1}  [1 2 3 5 6]*) | ([1 2 3 5 6]* 4{1} [1 2 3 5 6]{9} [1 2 3 5 6] [1 2 3 5 6]{5} 4{2}  [1 2 3 5 6]*) | ([1 2 3 5 6]* 4{1} [1 2 3 5 6] [1 2 3 5 6]{13} 4{2}  [1 2 3 5 6]*) )",
    "( ([1 2 3 4 6]* 5{2} [1 2 3 4 6] [1 2 3 4 6]{12} 5{3} [1 2 3 4 6] [1 2 3 4 6]{12} 5{3} [1 2 3 4 6] [1 2 3 4 6]{12} 5{3}  [1 2 3 4 6]*) | ([1 2 3 4 6]* 5{3} [1 2 3 4 6]{1} [1 2 3 4 6] [1 2 3 4 6]{11} 5{4} [1 2 3 4 6] [1 2 3 4 6]{11} 5{4}  [1 2 3 4 6]*) | ([1 2 3 4 6]* 5{3} [1 2 3 4 6]{12} [1 2 3 4 6] 5{3} [1 2 3 4 6]{12} [1 2 3 4 6] 5{3} [1 2 3 4 6]{12} [1 2 3 4 6] 5{2}  [1 2 3 4 6]*) | ([1 2 3 4 6]* 5{4} [1 2 3 4 6]{11} [1 2 3 4 6] 5{4} [1 2 3 4 6]{11} [1 2 3 4 6] [1 2 3 4 6]{1} 5{3}  [1 2 3 4 6]*) | ([1 2 3 4 6]* 5{2} [1 2 3 4 6]{13} [1 2 3 4 6] 5{3} [1 2 3 4 6]{12} [1 2 3 4 6] 5{3} [1 2 3 4 6]{12} [1 2 3 4 6] 5{3}  [1 2 3 4 6]*) | ([1 2 3 4 6]* 5{3} [1 2 3 4 6]{11} [1 2 3 4 6] 5{4} [1 2 3 4 6]{11} [1 2 3 4 6] 5{4}  [1 2 3 4 6]*) | ([1 2 3 4 6]* 5{3} [1 2 3 4 6] [1 2 3 4 6]{12} 5{3} [1 2 3 4 6] [1 2 3 4 6]{12} 5{3} [1 2 3 4 6] [1 2 3 4 6]{13} 5{2}  [1 2 3 4 6]*) | ([1 2 3 4 6]* 5{4} [1 2 3 4 6] [1 2 3 4 6]{11} 5{4} [1 2 3 4 6] [1 2 3 4 6]{11} 5{3}  [1 2 3 4 6]*) )",
];
